MatterCanvas synthetic PbN4 COOH fixture
1.0
10.000000 0.000000 0.000000
0.000000 10.000000 0.000000
0.000000 0.000000 20.000000
Pb N C O H
1 4 5 2 1
Direct
0.500000 0.500000 0.500000
0.680000 0.500000 0.500000
0.320000 0.500000 0.500000
0.500000 0.680000 0.500000
0.500000 0.320000 0.500000
0.200000 0.200000 0.500000
0.800000 0.200000 0.500000
0.200000 0.800000 0.500000
0.800000 0.800000 0.500000
0.500000 0.500000 0.610000
0.590000 0.500000 0.650000
0.450000 0.500000 0.670000
0.420000 0.500000 0.712000
